/*********************************************
 * OPL 12.6.0.0 Data
 * Author: Adrian Rodriguez Bazaga, Pau Rodriguez Esmerats
 * Creation Date: 06/12/2017 at 23:02:58
 *********************************************/

nNurses=167;
maxConsec=2;
maxPresence=7;
maxHours=5;
minHours=1;
hours=24;
demand= [35 29 42 47 29 42 47 30 25 17 4 6 5 7 6 6 5 2 2 1 22 35 14 39  ];
